500
[100,101,105,107,110,113,115,121,127,128,130,131,132,135,136,140,142,143,144,145,147,149,150,152,153,154,155,156,159,160,161,162,164,165,166,167,168,174,175,178,179,180,184,185,186,189,194,198,199,200,202,204,207,210,212,214,215,217,218,220,222,226,229,234,235,236,238,239,240,241,246,247,249,253,256,259,260,261,262,263,264,266,269,270,272,274,276,277,278,280,281,282,285,286,287,288,289,293,294,296,297,300,301,303,305,306,309,314,315,317,320,321,322,323,324,327,328,330,331,333,336,337,339,342,344,345,347,348,349,351,352,353,354,355,356,358,362,366,367,370,373,377,379,381,387,392,395,396,397,398,399]
[1,1,1,1,1,1,2,1,1,2,1,1,3,1,1,1,1,1,1,2,1,1,2,1,1,1,2,2,1,1,1,1,1,2,1,1,2,1,2,2,1,1,1,2,1,1,2,1,2,2,2,1,1,1,2,1,2,1,1,1,1,1,1,2,1,1,2,1,1,2,3,1,1,2,1,1,1,1,1,1,3,2,1,1,1,2,1,1,1,2,1,1,1,3,1,1,1,2,1,1,2,1,1,1,1,1,1,1,1,1,3,2,1,2,1,1,1,1,1,1,1,2,1,1,2,1,1,1,1,1,1,2,1,1,1,2,2,2,1,1,1,2,3,1,2,1,1,2,1,1,1]
